Maximize
 obj: y1 + y2 + y3 + y4 + y5 + y6
Subject To
 c1: y1 + y2 + y3  + y4 + y5 + y6 = 1
 c2: 22 y1 + 46 y2 + 50 y3  + 50 y4 + 46 y5 + 46 y6 >= 43
 c3: 46 y1 + 14 y2 + 42 y3  + 42 y4 + 42 y5 + 42 y6 >= 39
 c4: 52 y1 + 46 y2 + 52 y3  + 28 y4 + 52 y5 + 52 y6 >= 46
 c5: 48 y1 + 40 y2 + 16 y3  + 48 y4 + 40 y5 + 40 y6 >= 40
 c6: 44 y1 + 44 y2 + 42 y3  + 48 y4 + 20 y5 + 52 y6 >= 42
 c7: 44 y1 + 44 y2 + 42 y3  + 48 y4 + 52 y5 + 20 y6 >= 42
End